1,45939,680,37761,38026,48237,38859,20905,21373,49420,2991,47889,40726,28007,47728,25117,31157,12044,23249,950,24549,
2,950,680,2611,1431,2611,4716,2431,728,3151,1431,2970,1024,455,2221,8891,2666,2970,728,30775,274,
3,274,274,1387,4703,455,455,1575,1431,680,728,1009,274,680,1575,680,680,455,775,829,38473,
4,274,274,274,274,274,274,455,274,274,274,455,274,1075,455,1054,455,274,274,30003,143,
5,143,274,143,274,274,274,274,274,274,274,274,274,274,274,274,274,274,274,18826,46742,
6,143,143,274,274,274,274,274,274,274,274,274,274,274,274,274,274,274,143,274,12851,
7,143,143,274,274,274,274,143,143,143,274,274,274,274,274,274,143,274,274,29094,22136,
8,143,143,143,274,274,274,274,143,274,274,274,143,274,143,143,274,274,274,143,143,
9,143,143,143,143,143,143,143,143,143,274,143,143,143,274,143,143,143,143,274,11999,
10,143,143,143,143,143,143,143,143,143,143,143,143,143,143,143,143,143,143,46473,36263,
11,143,143,143,143,143,143,143,143,143,143,143,143,143,143,143,143,143,143,11918,143,
12,143,143,143,143,143,143,143,143,143,143,143,143,143,143,143,143,143,143,39360,10207,
13,143,143,143,143,143,6472,143,143,143,143,143,143,143,143,143,143,143,143,33252,143,
14,143,143,143,143,143,143,143,143,143,143,143,143,143,143,143,143,143,143,7565,24594,
15,143,143,143,143,143,143,143,143,143,143,143,143,143,143,143,143,143,143,7238,12451,
16,143,143,143,143,143,143,143,143,143,143,143,143,143,143,143,143,143,143,25554,4324,
17,143,143,143,143,143,143,143,143,143,143,143,143,9427,143,143,143,143,143,143,21205,
18,143,143,143,143,143,143,143,143,143,143,143,143,143,143,143,143,143,143,10785,2464,
19,143,143,143,143,143,143,143,143,143,143,143,143,143,143,143,143,143,143,29602,12139,
20,143,143,143,143,143,143,143,143,143,143,143,143,143,143,143,143,143,143,15214,11321,
21,143,143,143,143,143,143,143,143,143,143,143,143,143,143,143,143,143,143,143,37914,
22,143,143,143,143,3644,143,143,143,143,143,3644,143,143,143,143,143,143,143,30158,27102,
23,143,143,143,143,143,143,143,143,143,143,143,143,143,143,143,143,143,143,13036,5378,
24,143,143,143,143,143,143,143,143,143,143,143,143,143,143,143,143,143,143,22794,45591,
25,143,143,143,143,143,143,143,143,143,143,143,143,143,143,143,143,143,143,7869,143,
26,143,143,143,143,143,143,143,143,143,143,143,143,143,143,143,143,143,143,37398,38584,
27,143,143,143,143,143,143,143,143,143,143,143,143,143,143,143,143,143,143,14773,2689,
28,143,143,143,143,143,143,143,143,143,143,143,143,143,143,143,143,143,143,29985,45508,
29,143,143,143,143,143,143,143,143,143,143,143,143,143,143,143,143,143,143,51465,33922,
30,143,143,143,143,143,143,143,162,143,143,143,143,143,143,143,143,143,143,20769,5224,
31,143,143,143,143,143,143,143,143,143,143,143,143,143,143,143,143,143,143,3262,17776,
32,143,143,143,143,143,143,143,143,143,143,143,143,143,143,143,143,143,143,12884,49272,
33,143,143,143,143,143,143,143,143,143,143,143,143,143,143,143,143,143,143,39146,8490,
34,143,143,143,143,143,143,143,143,143,143,143,143,143,143,143,143,143,143,26441,143,
35,143,143,143,143,143,143,143,143,143,143,143,143,143,143,143,143,143,143,23318,27863,
36,143,143,143,143,143,143,143,143,143,143,143,143,143,143,143,143,143,143,36807,7289,
37,143,143,143,143,143,143,143,143,143,143,143,143,143,143,143,143,143,143,11663,37956,
38,143,143,143,143,143,143,143,143,143,143,143,143,143,143,143,143,143,143,1482,43404,
39,143,143,143,143,143,143,143,143,143,143,143,143,143,143,143,143,143,143,49459,48014,
40,143,143,143,143,143,143,143,143,143,143,143,143,143,14842,143,143,143,143,50682,38519,
41,143,143,143,143,143,11552,143,143,143,143,143,143,143,143,143,143,143,143,317,143,
42,143,143,143,143,143,143,143,143,143,143,143,143,143,143,143,143,143,143,45676,45871,
43,143,143,143,143,143,143,143,143,143,143,143,143,143,143,143,143,143,143,143,51242,
44,143,143,143,143,143,143,143,143,143,143,143,143,143,143,143,143,143,143,56465,17113,
45,143,143,13046,143,143,143,143,143,143,143,143,143,143,143,143,143,143,143,18924,143,
46,143,143,4188,143,143,143,143,143,143,143,143,143,143,143,143,143,143,143,11836,143,
47,143,143,143,143,143,143,143,143,143,143,143,143,143,143,143,143,143,143,1042,12683,
48,143,143,143,143,143,143,143,143,143,6171,143,143,143,143,143,143,143,143,39170,10725,
49,143,143,143,143,143,143,143,143,143,143,143,143,143,143,143,143,143,143,30893,31498,
50,143,143,143,143,143,143,143,143,143,143,143,143,143,143,143,143,143,143,21329,34382,
51,143,143,143,143,143,143,143,143,143,143,143,143,143,143,143,143,143,143,30048,39394,
52,143,143,143,143,143,143,143,143,143,143,143,143,143,143,143,143,143,143,21209,45804,
53,143,143,143,143,143,143,143,143,143,143,143,143,143,143,143,143,143,143,15161,7793,
54,143,143,143,143,143,143,143,143,143,143,143,143,143,143,143,143,143,143,18541,32195,
55,143,143,143,143,143,143,143,143,143,143,143,143,143,143,143,143,143,143,143,47732,
56,143,143,143,143,143,143,143,143,143,143,10742,143,143,143,143,143,143,143,4518,50383,
57,143,143,143,143,143,143,143,143,143,143,143,143,143,143,143,143,143,143,162,1572,
58,143,143,143,143,143,143,143,143,143,143,143,143,143,143,143,143,143,143,15384,34235,
59,143,143,143,143,143,143,143,143,143,143,143,143,143,143,143,143,143,143,143,11317,
60,143,143,143,143,143,143,143,143,143,143,143,143,143,143,143,143,143,143,143,38912,
61,143,143,143,143,143,143,143,143,143,143,143,143,143,143,143,143,143,143,8194,33468,
62,143,143,143,143,143,143,143,143,143,143,143,143,143,143,143,143,143,143,9659,27372,
63,143,143,143,143,143,143,143,143,143,143,143,143,143,143,143,143,143,143,143,37024,
64,143,143,143,143,143,143,143,143,143,143,143,143,143,143,143,143,143,143,2843,11499,
65,143,143,143,143,143,143,143,143,143,143,143,143,143,143,143,143,143,143,32310,43354,
66,143,143,143,143,143,143,143,143,143,143,143,143,143,143,143,143,143,143,143,3104,
67,143,143,143,143,143,143,143,143,143,143,143,143,143,143,143,143,143,143,13935,8129,
68,143,143,143,143,143,143,143,143,143,143,143,143,143,143,143,143,143,143,7444,61208,
69,143,143,143,143,143,143,143,143,143,143,143,143,143,143,143,143,143,143,10764,11421,
70,143,143,143,143,143,143,143,143,143,143,143,143,143,143,143,143,143,143,22513,14043,
71,143,143,143,143,143,143,143,143,143,143,143,143,143,143,143,143,143,143,143,29708,
72,143,143,143,143,143,143,143,143,143,143,143,143,143,143,143,143,143,143,2808,4306,
73,143,143,143,143,143,143,143,143,143,143,143,143,143,143,143,143,143,143,40930,32572,
74,143,143,143,143,143,143,143,143,143,143,143,143,143,143,143,143,143,143,13094,33855,
75,143,143,143,143,143,143,143,143,143,143,143,143,143,143,143,143,143,143,26813,56266,
76,143,143,143,143,143,143,143,143,143,143,143,143,143,143,143,143,143,143,143,29296,
77,143,143,143,143,143,143,143,143,143,143,143,143,143,143,143,143,143,143,10905,35712,
78,143,143,143,143,143,143,143,143,143,143,143,143,143,143,143,143,143,143,8891,46954,
79,143,143,143,143,143,143,143,143,143,143,143,143,143,143,143,143,143,143,15306,48711,
80,143,143,143,143,143,143,143,143,143,143,143,143,143,143,143,143,143,143,32827,143,
81,143,143,143,143,143,143,143,143,143,143,143,143,143,143,143,143,143,143,226,42618,
82,143,143,143,143,143,143,143,143,143,143,143,143,143,143,143,143,143,143,1586,14343,
83,143,143,143,143,143,143,143,143,143,143,143,143,143,143,143,143,143,143,143,44222,
84,143,143,143,143,143,143,143,143,143,143,143,143,143,6285,143,143,143,143,4665,7679,
85,143,143,143,143,143,143,143,143,143,143,143,143,143,143,143,143,143,143,5556,17722,
86,143,143,143,143,143,143,143,143,143,143,143,143,143,143,143,143,143,143,2397,2150,
87,143,143,143,143,143,143,143,143,143,143,143,143,143,143,143,143,143,143,143,12076,
88,143,143,143,143,143,143,143,143,143,143,143,143,143,143,143,143,143,143,4644,25789,
89,143,143,143,143,143,143,143,143,143,143,143,143,143,143,143,143,143,143,47702,143,
90,143,143,143,143,143,143,143,143,143,143,143,143,143,143,143,143,143,143,8939,19484,
91,143,143,143,143,143,143,143,143,143,143,143,143,143,143,143,143,143,143,6511,27195,
92,143,143,143,143,143,143,143,143,143,143,143,143,143,143,143,143,143,143,49295,143,
93,143,143,143,143,143,143,143,143,143,143,143,143,143,143,143,143,143,143,143,143,
94,143,143,143,143,143,143,143,143,143,143,143,143,143,143,143,143,143,143,997,15577,
95,143,143,143,143,143,143,143,143,143,143,143,143,143,143,143,143,143,143,19853,20383,
96,143,143,143,143,143,143,3879,143,143,143,143,143,143,143,143,143,143,143,7355,12322,
97,143,143,143,143,143,143,143,143,143,143,143,143,143,143,143,143,143,143,13241,43699,
98,143,143,143,143,143,143,143,143,143,143,143,143,143,143,143,143,143,143,39914,11693,
99,143,143,143,143,143,143,143,143,143,143,143,143,143,143,143,143,143,143,13384,6174,
100,143,143,143,143,143,143,143,143,143,143,787,143,143,143,143,143,143,143,143,17738,
